12131	16321
12146	16318
12146	16318
12146	16318
12146	16318
12153	16317
12162	16316
12163	16315
12163	16315
12163	16315
12208	16314
12245	16313
12245	16313
12296	16312
12311	16309
12311	16309
12318	16308
12318	16308
12318	16308
12335	16307
12392	16304
12415	16301
12441	16299
12458	16298
12458	16298
12459	16297
12465	16295
12481	16293
12488	16292
12512	16290
12517	16289
12530	16288
12550	16286
12551	16285
12551	16285
12551	16285
12551	16285
12551	16285
12576	16284
12590	16282
12603	16279
12616	16278
12616	16278
12621	16277
12636	16276
12645	16275
12670	16274
12684	16270
12697	16269
12699	16267
12711	16265
12714	16264
12714	16264
12721	16263
12730	16262
12730	16262
12747	16261
12753	16259
12753	16259
12762	16258
12763	16257
12768	16256
12780	16254
12780	16254
12781	16253
12781	16253
12792	16252
12792	16252
12793	16251
12793	16251
12793	16251
12798	16250
12798	16250
12798	16250
12798	16250
12811	16249
12814	16248
12841	16247
12857	16245
12859	16243
12859	16243
12884	16240
12885	16239
12900	16236
12900	16236
12909	16235
12911	16231
12911	16231
12911	16231
12936	16230
12952	16226
12952	16226
12952	16226
12957	16223
12957	16223
12957	16223
12957	16223
12959	16221
12959	16221
12976	16220
12976	16220
12988	16218
13004	16216
13006	16212
13006	16212
13017	16211
13017	16211
13018	16210
13018	16210
13018	16210
13031	16209
13032	16208
13047	16205
13047	16205
13056	16204
13056	16204
13056	16204
13070	16202
13083	16199
13097	16195
13103	16191
13104	16190
13104	16190
13111	16189
13111	16189
13111	16189
13111	16189
13120	16188
13120	16188
13120	16188
13120	16188
13120	16188
13120	16188
13121	16187
13121	16187
13126	16186
13130	16184
13130	16184
13149	16183
13151	16181
13163	16179
13163	16179
13163	16179
13163	16179
13177	16175
13182	16174
13191	16171
13198	16168
13198	16168
13204	16166
13213	16165
13213	16165
13213	16165
13213	16165
13214	16164
13214	16164
13214	16164
13214	16164
13219	16163
13223	16161
13223	16161
13223	16161
13223	16161
13223	16161
13241	16159
13241	16159
13241	16159
13241	16159
13241	16159
13241	16159
13242	16158
13251	16155
13251	16155
13251	16155
13269	16153
13277	16147
13282	16146
13282	16146
13289	16145
13295	16143
13301	16141
13301	16141
13301	16141
13306	16140
13307	16139
13307	16139
13307	16139
13307	16139
13307	16139
13307	16139
13307	16139
13307	16139
13308	16138
13311	16137
13311	16137
13311	16137
13311	16137
13311	16137
13311	16137
13311	16137
13311	16137
13311	16137
13311	16137
13329	16135
13333	16133
13338	16130
13338	16130
13338	16130
13343	16129
13347	16127
13347	16127
13354	16126
13355	16125
13355	16125
13355	16125
13359	16123
13359	16123
13359	16123
13359	16123
13359	16123
13363	16121
13370	16120
13370	16120
13370	16120
13370	16120
13370	16120
13370	16120
13370	16120
13374	16118
13375	16117
13375	16117
13375	16117
13375	16117
13384	16116
13384	16116
13384	16116
13384	16116
13391	16115
13391	16115
13398	16114
13412	16110
13412	16110
13417	16105
13417	16105
13417	16105
13417	16105
13417	16105
13417	16105
13417	16105
13417	16105
13417	16105
13417	16105
13417	16105
13417	16105
13417	16105
13417	16105
13417	16105
13424	16104
13426	16102
13426	16102
13426	16102
13431	16101
13440	16100
13442	16096
13447	16095
13454	16094
13454	16094
13454	16094
13454	16094
13454	16094
13454	16094
13454	16094
13454	16094
13454	16094
13454	16094
13460	16092
13460	16092
13460	16092
13474	16090
13479	16085
13494	16084
13500	16080
13501	16077
13501	16077
13501	16077
13501	16077
13501	16077
13501	16077
13501	16077
13501	16077
13501	16077
13501	16077
13501	16077
13501	16077
13501	16077
13501	16077
13501	16077
13501	16077
13506	16076
13506	16076
13513	16075
13516	16074
13516	16074
13516	16074
13516	16074
13516	16074
13518	16072
13519	16071
13519	16071
13519	16071
13519	16071
13519	16071
13519	16071
13519	16071
13519	16071
13519	16071
13528	16070
13528	16070
13528	16070
13528	16070
13528	16070
13528	16070
13528	16070
13528	16070
13528	16070
13528	16070
13528	16070
13528	16070
13528	16070
13528	16070
13528	16070
13528	16070
13528	16070
13528	16070
13528	16070
13528	16070
13529	16069
13529	16069
13529	16069
13529	16069
13529	16069
13529	16069
13529	16069
13529	16069
13529	16069
13529	16069
13529	16069
13529	16069
13529	16069
13529	16069
13529	16069
13529	16069
13529	16069
13529	16069
13529	16069
13529	16069
13529	16069
13529	16069
13529	16069
13529	16069
13529	16069
13529	16069
13529	16069
13529	16069
13529	16069
13529	16069
13529	16069
13529	16069
13529	16069
13529	16069
13529	16069
13529	16069
13529	16069
13529	16069
13529	16069
13529	16069
13529	16069
13529	16069
13529	16069
13544	16068
13547	16063
13554	16062
13554	16062
13554	16062
13555	16061
13555	16061
13555	16061
13555	16061
13555	16061
13570	16058
13574	16054
13574	16054
13584	16052
13589	16049
13589	16049
13598	16048
13598	16048
13598	16048
13598	16048
13598	16048
13598	16048
13598	16048
13598	16048
13598	16048
13598	16048
13598	16048
13598	16048
13598	16048
13604	16044
13604	16044
13604	16044
13604	16044
13604	16044
13604	16044
13604	16044
13610	16042
13610	16042
13610	16042
13610	16042
13610	16042
13610	16042
13610	16042
13610	16042
13610	16042
13610	16042
13610	16042
13610	16042
13610	16042
13610	16042
13610	16042
13610	16042
13610	16042
13623	16039
13623	16039
13624	16038
13624	16038
13624	16038
13624	16038
13624	16038
13624	16038
13624	16038
13624	16038
13624	16038
13624	16038
13624	16038
13624	16038
13624	16038
13624	16038
13624	16038
13624	16038
13624	16038
13624	16038
13624	16038
13624	16038
13624	16038
13624	16038
13624	16038
13624	16038
13624	16038
13624	16038
13624	16038
13624	16038
13624	16038
13624	16038
13624	16038
13624	16038
13624	16038
13624	16038
13624	16038
13624	16038
13624	16038
13624	16038
13624	16038
13624	16038
13624	16038
13624	16038
13624	16038
13624	16038
13624	16038
13624	16038
13624	16038
13624	16038
13624	16038
13624	16038
13624	16038
13624	16038
13624	16038
13624	16038
13624	16038
13624	16038
13624	16038
13630	16036
13630	16036
13630	16036
13630	16036
13630	16036
13636	16034
13640	16030
13645	16029
13645	16029
13650	16028
13650	16028
13650	16028
13650	16028
13650	16028
13650	16028
13650	16028
13650	16028
13650	16028
13650	16028
13650	16028
13650	16028
13650	16028
13650	16028
13650	16028
13650	16028
13650	16028
13650	16028
13650	16028
13656	16026
13656	16026
13658	16024
13658	16024
13658	16024
13658	16024
13658	16024
13661	16023
13661	16023
13661	16023
13661	16023
13661	16023
13661	16023
13661	16023
13661	16023
13661	16023
13661	16023
13672	16022
13673	16021
13673	16021
13673	16021
13677	16017
13677	16017
13677	16017
13677	16017
13677	16017
13677	16017
13677	16017
13677	16017
13684	16016
13684	16016
13690	16014
13690	16014
13690	16014
13690	16014
13691	16013
13691	16013
13691	16013
13691	16013
13691	16013
13691	16013
13691	16013
13691	16013
13692	16012
13692	16012
13699	16011
13705	16009
13705	16009
13705	16009
13705	16009
13705	16009
13705	16009
13705	16009
13705	16009
13705	16009
13705	16009
13705	16009
13705	16009
13705	16009
13705	16009
13705	16009
13705	16009
13705	16009
13710	16004
13710	16004
13710	16004
13710	16004
13710	16004
13710	16004
13710	16004
13710	16004
13710	16004
13710	16004
13710	16004
13710	16004
13710	16004
13710	16004
13710	16004
13710	16004
13710	16004
13710	16004
13710	16004
13710	16004
13710	16004
13710	16004
13710	16004
13710	16004
13710	16004
13710	16004
13710	16004
13710	16004
13710	16004
13710	16004
13710	16004
13710	16004
13710	16004
13710	16004
13710	16004
13710	16004
13710	16004
13710	16004
13710	16004
13710	16004
13710	16004
13710	16004
13710	16004
13710	16004
13710	16004
13710	16004
13710	16004
13710	16004
13710	16004
13710	16004
13710	16004
13710	16004
13710	16004
13710	16004
13710	16004
13710	16004
13710	16004
13710	16004
13710	16004
13710	16004
13710	16004
13710	16004
13710	16004
13710	16004
13710	16004
13710	16004
13710	16004
13710	16004
13710	16004
13710	16004
13710	16004
13710	16004
13710	16004
13710	16004
13710	16004
13710	16004
13710	16004
13710	16004
13710	16004
13710	16004
13710	16004
13710	16004
13710	16004
13710	16004
13717	16003
13717	16003
13717	16003
13717	16003
13717	16003
13717	16003
13717	16003
13717	16003
13717	16003
13717	16003
13717	16003
13717	16003
13717	16003
13717	16003
13717	16003
13717	16003
13717	16003
13717	16003
13717	16003
13717	16003
13717	16003
13717	16003
13717	16003
13717	16003
13717	16003
13717	16003
13717	16003
13717	16003
13717	16003
13717	16003
13717	16003
13717	16003
13717	16003
13717	16003
13717	16003
13717	16003
13717	16003
13717	16003
13717	16003
13718	16002
13718	16002
13718	16002
13718	16002
13718	16002
13718	16002
13718	16002
13718	16002
13718	16002
13718	16002
13718	16002
13718	16002
13718	16002
13718	16002
13718	16002
13718	16002
13718	16002
13718	16002
13718	16002
13718	16002
13718	16002
13718	16002
13718	16002
13723	16001
13723	16001
13724	16000
13724	16000
13731	15999
13731	15999
13731	15999
13731	15999
13738	15994
13745	15993
13745	15993
13745	15993
13745	15993
13745	15993
13745	15993
13751	15991
13751	15991
13752	15990
13752	15990
13759	15989
13759	15989
13759	15989
13759	15989
13759	15989
13759	15989
13759	15989
13759	15989
13759	15989
13759	15989
13759	15989
13759	15989
13759	15989
13759	15989
13759	15989
13759	15989
13759	15989
13759	15989
13766	15988
13771	15983
13771	15983
13771	15983
13771	15983
13771	15983
13771	15983
13771	15983
13771	15983
13771	15983
13771	15983
13771	15983
13771	15983
13771	15983
13771	15983
13771	15983
13771	15983
13771	15983
13771	15983
13771	15983
13771	15983
13772	15982
13772	15982
13772	15982
13772	15982
13772	15982
13772	15982
13772	15982
13772	15982
13772	15982
13772	15982
13772	15982
13772	15982
13772	15982
13772	15982
13772	15982
13772	15982
13772	15982
13772	15982
13772	15982
13772	15982
13777	15981
13777	15981
13777	15981
13777	15981
13777	15981
13777	15981
13780	15980
13785	15979
13785	15979
13785	15979
13785	15979
13785	15979
13785	15979
13785	15979
13785	15979
13791	15977
13791	15977
13791	15977
13791	15977
13791	15977
13791	15977
13791	15977
13791	15977
13791	15977
13791	15977
13791	15977
13791	15977
13791	15977
13791	15977
13791	15977
13792	15974
13792	15974
13792	15974
13792	15974
13792	15974
13792	15974
13792	15974
13792	15974
13792	15974
13792	15974
13792	15974
13792	15974
13797	15973
13797	15973
13806	15970
13806	15970
13806	15970
13806	15970
13806	15970
13806	15970
13810	15968
13810	15968
13810	15968
13810	15968
13817	15967
13817	15967
13817	15967
13820	15966
13820	15966
13834	15962
13834	15962
13834	15962
13834	15962
13838	15958
13838	15958
13838	15958
13838	15958
13838	15958
13845	15957
13845	15957
13850	15952
13850	15952
13850	15952
13850	15952
13850	15952
13850	15952
13850	15952
13850	15952
13850	15952
13850	15952
13850	15952
13850	15952
13850	15952
13850	15952
13850	15952
13850	15952
13850	15952
13850	15952
13851	15951
13851	15951
13851	15951
13851	15951
13851	15951
13851	15951
13851	15951
13851	15951
13851	15951
13851	15951
13851	15951
13851	15951
13851	15951
13851	15951
13851	15951
13851	15951
13851	15951
13851	15951
13851	15951
13851	15951
13851	15951
13851	15951
13851	15951
13851	15951
13851	15951
13851	15951
13851	15951
13851	15951
13851	15951
13851	15951
13851	15951
13851	15951
13851	15951
13851	15951
13851	15951
13851	15951
13851	15951
13851	15951
13851	15951
13851	15951
13851	15951
13851	15951
13851	15951
13851	15951
13851	15951
13851	15951
13851	15951
13851	15951
13851	15951
13851	15951
13851	15951
13851	15951
13851	15951
13851	15951
13851	15951
13851	15951
13851	15951
13851	15951
13851	15951
13851	15951
13851	15951
13851	15951
13851	15951
13851	15951
13851	15951
13851	15951
13851	15951
13851	15951
13851	15951
13851	15951
13851	15951
13851	15951
13851	15951
13856	15950
13856	15950
13856	15950
13856	15950
13856	15950
13856	15950
13856	15950
13856	15950
13856	15950
13856	15950
13856	15950
13856	15950
13856	15950
13856	15950
13856	15950
13856	15950
13856	15950
13856	15950
13856	15950
13856	15950
13856	15950
13864	15948
13864	15948
13869	15945
13869	15945
13870	15944
13870	15944
13870	15944
13870	15944
13870	15944
13870	15944
13871	15943
13871	15943
13877	15941
13877	15941
13885	15939
13885	15939
13885	15939
13885	15939
13885	15939
13885	15939
13885	15939
13887	15937
13888	15936
13899	15935
13899	15935
13899	15935
13899	15935
13899	15935
13905	15931
13910	15928
13910	15928
13917	15927
13918	15926
13918	15926
13922	15924
13931	15923
13931	15923
13936	15918
13937	15917
13937	15917
13938	15916
13938	15916
13938	15916
13938	15916
13953	15915
13953	15915
13953	15915
13953	15915
13967	15911
13979	15905
13982	15898
13982	15898
13985	15897
13988	15896
13989	15895
13989	15895
13989	15895
13989	15895
13989	15895
13989	15895
13989	15895
13989	15895
13989	15895
13989	15895
13989	15895
13989	15895
13989	15895
13989	15895
13989	15895
13989	15895
13995	15893
13995	15893
13995	15893
13995	15893
13995	15893
13995	15893
13995	15893
13995	15893
13995	15893
13995	15893
13995	15893
13995	15893
13995	15893
13995	15893
13995	15893
13995	15893
13995	15893
13995	15893
13995	15893
13995	15893
13995	15893
13995	15893
13995	15893
13995	15893
13995	15893
13995	15893
13995	15893
13995	15893
13995	15893
13995	15893
13995	15893
13995	15893
13995	15893
13996	15892
13996	15892
13996	15892
13996	15892
13996	15892
13996	15892
14003	15891
14003	15891
14003	15891
14003	15891
14003	15891
14008	15888
14008	15888
14008	15888
14008	15888
14008	15888
14009	15887
14009	15887
14009	15887
14009	15887
14009	15887
14009	15887
14009	15887
14009	15887
14009	15887
14009	15887
14009	15887
14017	15885
14017	15885
14017	15885
14017	15885
14017	15885
14022	15882
14022	15882
14022	15882
14022	15882
14029	15881
14034	15876
14034	15876
14043	15875
14043	15875
14043	15875
14045	15871
14045	15871
14045	15871
14048	15870
14052	15868
14062	15866
14062	15866
14062	15866
14062	15866
14067	15865
14073	15861
14073	15861
14074	15860
14074	15860
14074	15860
14080	15856
14083	15853
14086	15852
14086	15852
14091	15851
14091	15851
14094	15850
14094	15850
14098	15846
14098	15846
14098	15846
14098	15846
14098	15846
14098	15846
14098	15846
14098	15846
14098	15846
14098	15846
14098	15846
14098	15846
14098	15846
14098	15846
14098	15846
14098	15846
14098	15846
14098	15846
14103	15845
14103	15845
14103	15845
14111	15843
14111	15843
14117	15841
14126	15836
14126	15836
14126	15836
14126	15836
14126	15836
14126	15836
14131	15835
14131	15835
14138	15830
14138	15830
14138	15830
14145	15829
14145	15829
14147	15823
14147	15823
14148	15822
14151	15821
14153	15819
14153	15819
14153	15819
14153	15819
14153	15819
14153	15819
14155	15817
14155	15817
14155	15817
14155	15817
14162	15816
14162	15816
14167	15815
14167	15815
14175	15813
14176	15810
14176	15810
14176	15810
14187	15805
14187	15805
14188	15804
14188	15804
14188	15804
14188	15804
14188	15804
14188	15804
14188	15804
14188	15804
14188	15804
14188	15804
14188	15804
14188	15804
14188	15804
14188	15804
14193	15799
14198	15798
14198	15798
14198	15798
14198	15798
14199	15795
14199	15795
14201	15793
14202	15792
14202	15792
14202	15792
14202	15792
14205	15791
14205	15791
14205	15791
14205	15791
14205	15791
14205	15791
14205	15791
14205	15791
14205	15791
14205	15791
14205	15791
14205	15791
14205	15791
14205	15791
14205	15791
14205	15791
14205	15791
14205	15791
14205	15791
14205	15791
14205	15791
14212	15790
14212	15790
14212	15790
14212	15790
14212	15790
14212	15790
14212	15790
14218	15786
14218	15786
14218	15786
14218	15786
14218	15786
14223	15785
14223	15785
14228	15780
14228	15780
14228	15780
14228	15780
14228	15780
14228	15780
14228	15780
14228	15780
14229	15779
14229	15779
14234	15776
14234	15776
14234	15776
14234	15776
14234	15776
14237	15775
14237	15775
14237	15775
14237	15775
14237	15775
14238	15774
14238	15774
14241	15773
14241	15773
14241	15773
14241	15773
14241	15773
14241	15773
14241	15773
14243	15771
14245	15769
14245	15769
14245	15769
14245	15769
14245	15769
14245	15769
14245	15769
14256	15766
14259	15763
14259	15763
14259	15763
14259	15763
14259	15763
14259	15763
14259	15763
14259	15763
14259	15763
14259	15763
14259	15763
14262	15762
14264	15760
14264	15760
14264	15760
14264	15760
14273	15759
14277	15753
14277	15753
14277	15753
14277	15753
14279	15751
14279	15751
14279	15751
14279	15751
14279	15751
14280	15750
14280	15750
14280	15750
14280	15750
14280	15750
14280	15750
14280	15750
14280	15750
14283	15749
14283	15749
14285	15747
14285	15747
14290	15744
14290	15744
14290	15744
14290	15744
14290	15744
14290	15744
14290	15744
14290	15744
14290	15744
14291	15741
14296	15740
14296	15740
14303	15737
14303	15737
14304	15736
14304	15736
14304	15736
14306	15734
14310	15732
14310	15732
14312	15730
14315	15729
14315	15729
14322	15726
14325	15725
14326	15724
14326	15724
14326	15724
14326	15724
14326	15724
14326	15724
14327	15721
14327	15721
14330	15720
14330	15720
14330	15720
14330	15720
14330	15720
14330	15720
14333	15717
14337	15715
14338	15714
14338	15714
14338	15714
14338	15714
14338	15714
14342	15712
14343	15711
14343	15711
14343	15711
14343	15711
14343	15711
14343	15711
14343	15711
14343	15711
14343	15711
14343	15711
14343	15711
14343	15711
14343	15711
14343	15711
14343	15711
14343	15711
14343	15711
14343	15711
14343	15711
14343	15711
14343	15711
14343	15711
14343	15711
14343	15711
14343	15711
14343	15711
14343	15711
14343	15711
14343	15711
14343	15711
14343	15711
14343	15711
14343	15711
14343	15711
14343	15711
14343	15711
14343	15711
14343	15711
14346	15710
14346	15710
14346	15710
14346	15710
14346	15710
14346	15710
14346	15710
14347	15709
14347	15709
14356	15706
14357	15703
14360	15700
14360	15700
14360	15700
14360	15700
14360	15700
14360	15700
14365	15699
14365	15699
14369	15697
14369	15697
14369	15697
14369	15697
14369	15697
14369	15697
14369	15697
14369	15697
14369	15697
14369	15697
14369	15697
14369	15697
14369	15697
14369	15697
14369	15697
14370	15694
14370	15694
14373	15691
14373	15691
14373	15691
14373	15691
14373	15691
14377	15689
14377	15689
14377	15689
14377	15689
14377	15689
14377	15689
14377	15689
14377	15689
14377	15689
14377	15689
14378	15688
14378	15688
14378	15688
14378	15688
14378	15688
14378	15688
14378	15688
14378	15688
14378	15688
14380	15686
14385	15685
14385	15685
14385	15685
14385	15685
14385	15685
14385	15685
14385	15685
14385	15685
14389	15683
14391	15681
14391	15681
14391	15681
14391	15681
14391	15681
14391	15681
14394	15676
14394	15676
14394	15676
14394	15676
14394	15676
14394	15676
14397	15675
14397	15675
14397	15675
14397	15675
14397	15675
14397	15675
14397	15675
14397	15675
14397	15675
14397	15675
14397	15675
14397	15675
14398	15674
14398	15674
14398	15674
14398	15674
14398	15674
14398	15674
14398	15674
14398	15674
14398	15674
14398	15674
14403	15673
14408	15670
14408	15670
14408	15670
14408	15670
14408	15670
14408	15670
14408	15670
14408	15670
14409	15667
14409	15667
14409	15667
14409	15667
14409	15667
14412	15666
14415	15665
14415	15665
14421	15661
14421	15661
14421	15661
14421	15661
14421	15661
14421	15661
14421	15661
14421	15661
14421	15661
14421	15661
14421	15661
14421	15661
14421	15661
14421	15661
14421	15661
14421	15661
14421	15661
14421	15661
14425	15657
14425	15657
14433	15655
14433	15655
14433	15655
14433	15655
14433	15655
14433	15655
14436	15650
14436	15650
14437	15649
14437	15649
14437	15649
14437	15649
14437	15649
14437	15649
14437	15649
14437	15649
14437	15649
14437	15649
14437	15649
14437	15649
14437	15649
14438	15648
14438	15648
14438	15648
14443	15647
14443	15647
14443	15647
14443	15647
14446	15644
14446	15644
14446	15644
14446	15644
14449	15641
14449	15641
14449	15641
14449	15641
14449	15641
14449	15641
14449	15641
14449	15641
14449	15641
14449	15641
14449	15641
14449	15641
14449	15641
14449	15641
14449	15641
14449	15641
14449	15641
14449	15641
14449	15641
14449	15641
14449	15641
14449	15641
14449	15641
14449	15641
14449	15641
14449	15641
14449	15641
14449	15641
14449	15641
14449	15641
14449	15641
14449	15641
14449	15641
14449	15641
14449	15641
14449	15641
14449	15641
14449	15641
14449	15641
14449	15641
14449	15641
14449	15641
14454	15640
14454	15640
14455	15639
14456	15638
14456	15638
14456	15638
14456	15638
14456	15638
14458	15634
14458	15634
14458	15634
14458	15634
14458	15634
14458	15634
14458	15634
14458	15634
14459	15633
14459	15633
14459	15633
14459	15633
14462	15632
14462	15632
14462	15632
14462	15632
14462	15632
14462	15632
14467	15631
14467	15631
14467	15631
14467	15631
14474	15626
14478	15622
14485	15621
14485	15621
14488	15614
14488	15614
14488	15614
14488	15614
14498	15612
14498	15612
14498	15612
14498	15612
14502	15606
14502	15606
14506	15604
14506	15604
14506	15604
14506	15604
14507	15601
14507	15601
14507	15601
14507	15601
14507	15601
14507	15601
14507	15601
14507	15601
14507	15601
14507	15601
14507	15601
14507	15601
14510	15600
14510	15600
14510	15600
14510	15600
14512	15596
14512	15596
14512	15596
14512	15596
14512	15596
14512	15596
14512	15596
14512	15596
14512	15596
14512	15596
14519	15595
14519	15595
14523	15591
14526	15590
14526	15590
14526	15590
14526	15590
14526	15590
14526	15590
14527	15587
14527	15587
14527	15587
14527	15587
14527	15587
14527	15587
14529	15585
14529	15585
14530	15584
14530	15584
14530	15584
14530	15584
14536	15582
14536	15582
14536	15582
14536	15582
14536	15582
14536	15582
14548	15576
14548	15576
14548	15576
14549	15575
14549	15575
14549	15575
14549	15575
14552	15570
14552	15570
14553	15569
14553	15569
14553	15569
14553	15569
14556	15568
14556	15568
14556	15568
14556	15568
14556	15568
14556	15568
14556	15568
14556	15568
14557	15565
14557	15565
14557	15565
14557	15565
14557	15565
14557	15565
14557	15565
14557	15565
14557	15565
14557	15565
14557	15565
14560	15564
14560	15564
14560	15564
14563	15561
14563	15561
14564	15560
14564	15560
14564	15560
14564	15560
14564	15560
14564	15560
14564	15560
14564	15560
14564	15560
14564	15560
14569	15559
14569	15559
14569	15559
14569	15559
14570	15558
14575	15555
14575	15555
14578	15554
14578	15554
14582	15548
14582	15548
14584	15546
14585	15545
14585	15545
14585	15545
14585	15545
14585	15545
14585	15545
14585	15545
14585	15545
14585	15545
14585	15545
14586	15544
14586	15544
14586	15544
14586	15544
14586	15544
14586	15544
14586	15544
14586	15544
14586	15544
14586	15544
14586	15544
14586	15544
14586	15544
14586	15544
14586	15544
14586	15544
14586	15544
14586	15544
14586	15544
14586	15544
14589	15541
14592	15540
14592	15540
14599	15539
14603	15533
14603	15533
14606	15532
14606	15532
14607	15529
14607	15529
14607	15529
14615	15525
14615	15525
14616	15524
14616	15524
14619	15523
14621	15517
14621	15517
14625	15515
14628	15512
14628	15512
14628	15512
14628	15512
14628	15512
14628	15512
14636	15508
14636	15508
14636	15508
14636	15508
14636	15508
14636	15508
14640	15502
14640	15502
14640	15502
14640	15502
14641	15501
14641	15501
14642	15500
14642	15500
14643	15499
14644	15498
14644	15498
14645	15497
14645	15497
14648	15496
14648	15496
14651	15493
14651	15493
14651	15493
14651	15493
14652	15492
14652	15492
14652	15492
14652	15492
14652	15492
14652	15492
14652	15492
14653	15491
14653	15491
14653	15491
14654	15490
14654	15490
14657	15489
14660	15486
14660	15486
14660	15486
14664	15484
14664	15484
14664	15484
14665	15483
14665	15483
14668	15478
14668	15478
14668	15478
14668	15478
14668	15478
14668	15478
14668	15478
14668	15478
14668	15478
14669	15477
14669	15477
14672	15476
14672	15476
14672	15476
14673	15475
14673	15475
14674	15472
14674	15472
14677	15471
14677	15471
14677	15471
14684	15468
14684	15468
14684	15468
14686	15464
14688	15462
14688	15462
14688	15462
14688	15462
14688	15462
14689	15461
14690	15460
14690	15460
14690	15460
14697	15459
14701	15453
14701	15453
14705	15449
14709	15445
14710	15444
14712	15442
14712	15442
14720	15438
14724	15432
14726	15430
14731	15429
14732	15428
14737	15423
14744	15418
14745	15413
14745	15413
14747	15411
14752	15408
14754	15404
14754	15404
14755	15403
14755	15403
14755	15403
14757	15399
14762	15398
14767	15393
14774	15388
14779	15383
14783	15377
14783	15377
14783	15377
14783	15377
14783	15377
14784	15374
14791	15373
14791	15373
14794	15366
14794	15366
14794	15366
14794	15366
14795	15365
14795	15365
14795	15365
14799	15363
14801	15359
14803	15357
14808	15354
14808	15354
14812	15350
14813	15347
14814	15346
14814	15346
14820	15344
14820	15344
14820	15344
14825	15339
14825	15339
14826	15336
14832	15334
14833	15329
14834	15326
14835	15325
14835	15325
14835	15325
14836	15324
14837	15323
14838	15322
14842	15320
14842	15320
14845	15319
14846	15314
14846	15314
14846	15314
14846	15314
14846	15314
14846	15314
14846	15314
14846	15314
14846	15314
14846	15314
14846	15314
14846	15314
14846	15314
14846	15314
14846	15314
14846	15314
14846	15314
14846	15314
14846	15314
14846	15314
14846	15314
14846	15314
14846	15314
14846	15314
14846	15314
14846	15314
14849	15311
14850	15310
14853	15309
14859	15305
14861	15301
14861	15301
14862	15296
14862	15296
14862	15296
14867	15295
14867	15295
14870	15292
14870	15292
14870	15292
14874	15290
14875	15285
14875	15285
14876	15284
14882	15280
14883	15275
14883	15275
14883	15275
14885	15273
14885	15273
14886	15272
14886	15272
14886	15272
14886	15272
14886	15272
14887	15271
14887	15271
14887	15271
14887	15271
14887	15271
14887	15271
14887	15271
14887	15271
14887	15271
14887	15271
14890	15270
14891	15267
14891	15267
14891	15267
14891	15267
14891	15267
14892	15264
14892	15264
14892	15264
14892	15264
14895	15263
14896	15262
14896	15262
14896	15262
14900	15260
14900	15260
14900	15260
14903	15257
14904	15256
14904	15256
14904	15256
14906	15252
14908	15250
14908	15250
14910	15248
14910	15248
14915	15247
14917	15243
14917	15243
14919	15241
14919	15241
14919	15241
14919	15241
14919	15241
14919	15241
14919	15241
14919	15241
14919	15241
14921	15237
14921	15237
14922	15234
14922	15234
14922	15234
14925	15233
14925	15233
14930	15228
14933	15227
14933	15227
14933	15227
14933	15227
14933	15227
14933	15227
14933	15227
14933	15227
14933	15227
14933	15227
14933	15227
14935	15221
14935	15221
14938	15218
14938	15218
14941	15217
14941	15217
14941	15217
14941	15217
14941	15217
14941	15217
14941	15217
14941	15217
14942	15212
14942	15212
14942	15212
14942	15212
14945	15211
14945	15211
14945	15211
14945	15211
14945	15211
14945	15211
14945	15211
14945	15211
14945	15211
14945	15211
14946	15210
14946	15210
14946	15210
14946	15210
14951	15207
14951	15207
14952	15202
14953	15201
14954	15198
14954	15198
14954	15198
14954	15198
14954	15198
14954	15198
14959	15197
14959	15197
14959	15197
14959	15197
14959	15197
14959	15197
14959	15197
14959	15197
14960	15196
14961	15193
14964	15188
14964	15188
14964	15188
14964	15188
14967	15187
14967	15187
14967	15187
14967	15187
14967	15187
14967	15187
14967	15187
14968	15186
14969	15183
14974	15182
14974	15182
14974	15182
14974	15182
14977	15177
14977	15177
14980	15174
14980	15174
14981	15173
14981	15173
14981	15173
14981	15173
14981	15173
14981	15173
14988	15168
14989	15163
14989	15163
14989	15163
14989	15163
14991	15159
14991	15159
14991	15159
14991	15159
14991	15159
14996	15158
14999	15153
14999	15153
15000	15148
15000	15148
15000	15148
15000	15148
15000	15148
15000	15148
15001	15147
15001	15147
15001	15147
15005	15145
15007	15143
15007	15143
15007	15143
15007	15143
15010	15140
15013	15135
15015	15133
15015	15133
15017	15129
15017	15129
15017	15129
15017	15129
15017	15129
15017	15129
15017	15129
15017	15129
15019	15127
15019	15127
15019	15127
15019	15127
15019	15127
15019	15127
15019	15127
15022	15126
15022	15126
15023	15123
15023	15123
15028	15120
15033	15119
15034	15112
15034	15112
15034	15112
15036	15110
15036	15110
15037	15107
15040	15104
15041	15103
15043	15099
15051	15097
15053	15089
15053	15089
15053	15089
15056	15086
15057	15083
15057	15083
15060	15082
15060	15082
15060	15082
15060	15082
15060	15082
15062	15076
15063	15075
15063	15075
15063	15075
15063	15075
15063	15075
15063	15075
15063	15075
15063	15075
15063	15075
15063	15075
15063	15075
15063	15075
15063	15075
15063	15075
15063	15075
15063	15075
15063	15075
15063	15075
15063	15075
15068	15074
15069	15069
15071	15067
15071	15067
15071	15067
15071	15067
15071	15067
15071	15067
15071	15067
15071	15067
15071	15067
15071	15067
15071	15067
15071	15067
15075	15063
15075	15063
15077	15061
15079	15057
15079	15057
15082	15056
15085	15051
15085	15051
15085	15051
15086	15048
15087	15047
15087	15047
15087	15047
15094	15044
15095	15041
15097	15035
15098	15032
15098	15032
15098	15032
15098	15032
15098	15032
15103	15031
15105	15027
15106	15022
15106	15022
15106	15022
15106	15022
15106	15022
15106	15022
15106	15022
15106	15022
15106	15022
15106	15022
15106	15022
15109	15021
15109	15021
15109	15021
15109	15021
15109	15021
15109	15021
15109	15021
15112	15018
15113	15015
15114	15014
15114	15014
15114	15014
15114	15014
15114	15014
15114	15014
15114	15014
15114	15014
15115	15011
15120	15010
15121	15005
15122	15004
15124	15002
15127	14999
15127	14999
15127	14999
15128	14998
15128	14998
15131	14997
15131	14997
15135	14991
15138	14984
15143	14981
15144	14976
15144	14976
15144	14976
15149	14975
15150	14968
15157	14967
15158	14958
15162	14954
15162	14954
15162	14954
15162	14954
15162	14954
15162	14954
15163	14951
15163	14951
15163	14951
15163	14951
15164	14950
15164	14950
15164	14950
15164	14950
15165	14949
15167	14947
15167	14947
15167	14947
15170	14946
15170	14946
15173	14941
15175	14937
15175	14937
15180	14934
15182	14930
15184	14928
15184	14928
15188	14920
15190	14918
15191	14915
15192	14914
15196	14912
15198	14908
15198	14908
15200	14904
15200	14904
15200	14904
15200	14904
15200	14904
15200	14904
15200	14904
15202	14900
15202	14900
15202	14900
15202	14900
15202	14900
15202	14900
15202	14900
15202	14900
15202	14900
15202	14900
15206	14898
15206	14898
15206	14898
15207	14891
15207	14891
15207	14891
15208	14890
15208	14890
15208	14890
15208	14890
15208	14890
15208	14890
15208	14890
15208	14890
15208	14890
15208	14890
15208	14890
15208	14890
15208	14890
15208	14890
15209	14889
15209	14889
15209	14889
15213	14885
15216	14882
15219	14877
15220	14872
15220	14872
15221	14871
15226	14870
15226	14870
15232	14864
15235	14855
15235	14855
15235	14855
15239	14849
15240	14846
15245	14845
15248	14838
15253	14835
15256	14824
15256	14824
15256	14824
15256	14824
15257	14823
15259	14819
15259	14819
15259	14819
15259	14819
15259	14819
15259	14819
15259	14819
15259	14819
15259	14819
15259	14819
15265	14813
15268	14804
15268	14804
15268	14804
15268	14804
15268	14804
15268	14804
15268	14804
15270	14800
15273	14797
15276	14794
15276	14794
15276	14794
15276	14794
15276	14794
15277	14789
15277	14789
15279	14785
15279	14785
15279	14785
15279	14785
15279	14785
15279	14785
15279	14785
15279	14785
15279	14785
15279	14785
15279	14785
15279	14785
15279	14785
15279	14785
15279	14785
15279	14785
15279	14785
15279	14785
15279	14785
15279	14785
15279	14785
15279	14785
15279	14785
15279	14785
15281	14783
15282	14780
15282	14780
15282	14780
15282	14780
15282	14780
15282	14780
15282	14780
15282	14780
15285	14777
15289	14773
15289	14773
15289	14773
15289	14773
15289	14773
15289	14773
15289	14773
15289	14773
15292	14768
15293	14767
15293	14767
15295	14761
15295	14761
15295	14761
15296	14756
15296	14756
15299	14755
15301	14753
15306	14746
15309	14743
15309	14743
15309	14743
15309	14743
15309	14743
15309	14743
15310	14736
15312	14734
15312	14734
15312	14734
15312	14734
15314	14728
15314	14728
15314	14728
15315	14727
15315	14727
15315	14727
15315	14727
15315	14727
15315	14727
15315	14727
15318	14726
15322	14722
15326	14714
15329	14705
15329	14705
15332	14698
15332	14698
15334	14692
15335	14691
15335	14691
15335	14691
15335	14691
15335	14691
15335	14691
15335	14691
15335	14691
15335	14691
15335	14691
15335	14691
15335	14691
15335	14691
15335	14691
15335	14691
15335	14691
15335	14691
15335	14691
15335	14691
15335	14691
15335	14691
15335	14691
15335	14691
15335	14691
15335	14691
15337	14689
15337	14689
15337	14689
15337	14689
15337	14689
15339	14685
15342	14684
15343	14677
15343	14677
15344	14672
15344	14672
15344	14672
15344	14672
15344	14672
15344	14672
15344	14672
15344	14672
15344	14672
15344	14672
15344	14672
15344	14672
15344	14672
15344	14672
15344	14672
15348	14670
15348	14670
15348	14670
15351	14665
15351	14665
15354	14662
15355	14659
15355	14659
15355	14659
15356	14654
15362	14652
15363	14647
15365	14635
15365	14635
15365	14635
15367	14633
15369	14631
15369	14631
15369	14631
15369	14631
15369	14631
15369	14631
15369	14631
15369	14631
15369	14631
15369	14631
15369	14631
15371	14627
15371	14627
15371	14627
15371	14627
15371	14627
15371	14627
15373	14625
15373	14625
15375	14623
15376	14616
15377	14613
15377	14613
15377	14613
15381	14609
15381	14609
15382	14606
15383	14603
15387	14601
15389	14595
15389	14595
15389	14595
15389	14595
15393	14587
15394	14582
15394	14582
15394	14582
15394	14582
15395	14581
15395	14581
15395	14581
15395	14581
15395	14581
15397	14575
15397	14575
15399	14573
15400	14572
15401	14567
15401	14567
15401	14567
15401	14567
15401	14567
15401	14567
15401	14567
15401	14567
15401	14567
15402	14564
15402	14564
15402	14564
15403	14563
15403	14563
15403	14563
15403	14563
15404	14562
15405	14561
15405	14561
15406	14558
15406	14558
15407	14557
15407	14557
15407	14557
15407	14557
15407	14557
15407	14557
15407	14557
15407	14557
15407	14557
15409	14553
15409	14553
15411	14551
15414	14548
15414	14548
15416	14542
15417	14537
15417	14537
15419	14535
15420	14530
15421	14529
15421	14529
15421	14529
15421	14529
15421	14529
15421	14529
15421	14529
15421	14529
15421	14529
15421	14529
15421	14529
15421	14529
15421	14529
15421	14529
15421	14529
15421	14529
15421	14529
15421	14529
15421	14529
15423	14525
15423	14525
15423	14525
15424	14522
15424	14522
15424	14522
15427	14519
15427	14519
15429	14513
15430	14510
15430	14510
15430	14510
15430	14510
15430	14510
15432	14506
15432	14506
15432	14506
15432	14506
15432	14506
15432	14506
15432	14506
15432	14506
15432	14506
15432	14506
15432	14506
15432	14506
15432	14506
15432	14506
15437	14503
15439	14499
15441	14489
15445	14485
15445	14485
15445	14485
15445	14485
15447	14481
15448	14476
15448	14476
15448	14476
15450	14474
15452	14470
15453	14465
15455	14457
15459	14455
15459	14455
15461	14447
15461	14447
15461	14447
15461	14447
15461	14447
15461	14447
15461	14447
15461	14447
15461	14447
15461	14447
15461	14447
15462	14440
15462	14440
15462	14440
15462	14440
15464	14438
15465	14435
15465	14435
15466	14434
15466	14434
15466	14434
15466	14434
15467	14433
15467	14433
15472	14426
15472	14426
15474	14424
15475	14413
15475	14413
15475	14413
15476	14412
15476	14412
15477	14409
15482	14408
15484	14404
15484	14404
15487	14395
15489	14385
15493	14381
15494	14376
15494	14376
15494	14376
15494	14376
15494	14376
15494	14376
15495	14371
15495	14371
15495	14371
15495	14371
15499	14365
15499	14365
15502	14356
15506	14350
15506	14350
15506	14350
15508	14342
15508	14342
15508	14342
15508	14342
15508	14342
15508	14342
15508	14342
15508	14342
15508	14342
15508	14342
15511	14339
15512	14330
15512	14330
15512	14330
15512	14330
15512	14330
15512	14330
15512	14330
15512	14330
15512	14330
15512	14330
15519	14329
15520	14318
15520	14318
15521	14311
15521	14311
15521	14311
15521	14311
15521	14311
15521	14311
15522	14310
15524	14308
15524	14308
15526	14300
15526	14300
15526	14300
15531	14297
15531	14297
15531	14297
15531	14297
15531	14297
15531	14297
15531	14297
15531	14297
15534	14290
15535	14277
15535	14277
15535	14277
15535	14277
15535	14277
15535	14277
15535	14277
15535	14277
15535	14277
15535	14277
15535	14277
15537	14271
15537	14271
15539	14269
15539	14269
15539	14269
15539	14269
15540	14266
15540	14266
15540	14266
15540	14266
15540	14266
15542	14264
15542	14264
15546	14258
15546	14258
15547	14251
15549	14249
15552	14244
15552	14244
15553	14237
15553	14237
15553	14237
15554	14232
15554	14232
15555	14225
15555	14225
15558	14224
15558	14224
15558	14224
15558	14224
15558	14224
15558	14224
15560	14218
15561	14213
15565	14211
15568	14202
15569	14193
15570	14192
15570	14192
15570	14192
15570	14192
15570	14192
15570	14192
15570	14192
15570	14192
15571	14185
15571	14185
15571	14185
15571	14185
15571	14185
15572	14182
15572	14182
15572	14182
15577	14181
15580	14172
15580	14172
15582	14170
15583	14159
15583	14159
15583	14159
15584	14152
15584	14152
15584	14152
15585	14149
15586	14140
15586	14140
15586	14140
15586	14140
15586	14140
15590	14138
15590	14138
15593	14129
15593	14129
15594	14126
15594	14126
15595	14123
15595	14123
15596	14116
15596	14116
15596	14116
15597	14115
15597	14115
15597	14115
15597	14115
15597	14115
15600	14112
15602	14108
15602	14108
15606	14098
15606	14098
15607	14093
15607	14093
15608	14086
15608	14086
15608	14086
15610	14078
15611	14071
15611	14071
15611	14071
15611	14071
15611	14071
15611	14071
15611	14071
15611	14071
15611	14071
15613	14065
15615	14061
15621	14051
15622	14042
15622	14042
15623	14039
15623	14039
15623	14039
15623	14039
15623	14039
15624	14034
15627	14031
15627	14031
15630	14020
15630	14020
15631	14011
15632	14004
15633	13999
15633	13999
15634	13998
15634	13998
15634	13998
15634	13998
15635	13993
15635	13993
15638	13992
15638	13992
15638	13992
15639	13981
15640	13972
15640	13972
15641	13971
15641	13971
15641	13971
15641	13971
15642	13970
15642	13970
15643	13963
15647	13961
15649	13947
15650	13944
15650	13944
15654	13940
15654	13940
15655	13933
15655	13933
15657	13921
15658	13912
15659	13901
15659	13901
15659	13901
15659	13901
15659	13901
15659	13901
15659	13901
15659	13901
15659	13901
15661	13897
15662	13890
15662	13890
15662	13890
15664	13888
15665	13883
15665	13883
15667	13873
15667	13873
15669	13871
15670	13866
15670	13866
15670	13866
15670	13866
15670	13866
15670	13866
15670	13866
15671	13857
15671	13857
15671	13857
15671	13857
15671	13857
15671	13857
15671	13857
15671	13857
15671	13857
15671	13857
15671	13857
15671	13857
15671	13857
15672	13854
15673	13849
15673	13849
15675	13843
15675	13843
15675	13843
15675	13843
15676	13830
15676	13830
15678	13826
15679	13821
15679	13821
15679	13821
15680	13814
15680	13814
15680	13814
15680	13814
15681	13807
15681	13807
15681	13807
15682	13804
15684	13802
15688	13794
15692	13782
15693	13759
15694	13756
15695	13743
15695	13743
15695	13743
15695	13743
15698	13736
15698	13736
15698	13736
15700	13724
15701	13719
15702	13714
15702	13714
15704	13710
15705	13699
15707	13693
15709	13685
15712	13674
15713	13659
15714	13654
15715	13647
15716	13634
15717	13627
15717	13627
15717	13627
15718	13622
15718	13622
15719	13621
15719	13621
15719	13621
15719	13621
15719	13621
15720	13618
15720	13618
15721	13617
15722	13608
15723	13599
15723	13599
15723	13599
15723	13599
15725	13597
15726	13586
15727	13583
15729	13581
15729	13581
15729	13581
15729	13581
15729	13581
15729	13581
15729	13581
15731	13571
15732	13566
15734	13548
15734	13548
15734	13548
15734	13548
15735	13545
15735	13545
15735	13545
15736	13538
15737	13521
15738	13512
15738	13512
15739	13509
15740	13506
15742	13492
15742	13492
15742	13492
15742	13492
15742	13492
15742	13492
15742	13492
15743	13485
15744	13482
15747	13473
15748	13468
15752	13462
15753	13435
15753	13435
15754	13432
15755	13419
15756	13414
15759	13395
15760	13376
15761	13363
15762	13362
15762	13362
15762	13362
15766	13356
15769	13343
15770	13322
15771	13313
15772	13306
15772	13306
15772	13306
15772	13306
15773	13299
15773	13299
15773	13299
15774	13294
15774	13294
15774	13294
15775	13285
15776	13276
15776	13276
15776	13276
15776	13276
15777	13255
15778	13248
15779	13237
15779	13237
15780	13216
15780	13216
15782	13206
15783	13191
15785	13185
15785	13185
15785	13185
15786	13184
15788	13176
15791	13175
15792	13154
15793	13139
15793	13139
15793	13139
15793	13139
15793	13139
15795	13129
15797	13091
15797	13091
15798	13046
15799	13031
15800	13002
15801	12971
15801	12971
15801	12971
15801	12971
15801	12971
15802	12966
15802	12966
15802	12966
15802	12966
15803	12937
15804	12924
15804	12924
15804	12924
15804	12924
15804	12924
15805	12915
15805	12915
15806	12910
15806	12910
15806	12910
15806	12910
15806	12910
15806	12910
15806	12910
15806	12910
15806	12910
15806	12910
15806	12910
15806	12910
15807	12901
15808	12900
15810	12862
15810	12862
15810	12862
15810	12862
15811	12853
15812	12826
15812	12826
15812	12826
15812	12826
15812	12826
15812	12826
15812	12826
15812	12826
15814	12792
15815	12713
15815	12713
15816	12684
15817	12677
15817	12677
15817	12677
15818	12668
15819	12659
